tsp_instances/TSP50/instance75.tsp
NODE_COORD_SECTION
0 58 40
1 109 139
2 57 28
3 78 128
4 63 181
5 8 146
6 84 125
7 40 53
8 101 64
9 113 68
10 17 58
11 0 1
12 59 11
13 163 58
14 11 185
15 33 87
16 46 20
17 191 115
18 88 176
19 179 191
20 113 54
21 61 179
22 112 110
23 25 113
24 68 75
25 69 118
26 68 193
27 6 184
28 36 4
29 128 64
30 71 133
31 89 48
32 159 77
33 135 99
34 85 118
35 151 106
36 71 87
37 126 55
38 13 191
39 60 184
40 60 165
41 120 44
42 20 155
43 25 148
44 146 72
45 132 22
46 175 158
47 53 176
48 198 170
49 65 67
