tsp_instances/TSP50/instance75.opt.tour
TOUR_SECTION
1
3
13
17
29
12
11
8
50
25
37
16
24
6
44
43
28
15
39
48
41
22
5
40
27
19
2
7
4
31
26
35
23
34
36
47
20
49
18
33
14
45
30
38
46
42
21
10
9
32
-1